groups = 29;
numShifts = 3;
demand = [| 15, 13, 14, 15, 13, 15, 14,
          | 5, 5, 5, 5, 6, 4, 5,
          | 1, 1, 1, 1, 1, 0, 1 |];
minShift = [2, 2, 2];
maxShift = [6, 5, 4];
minOff = 2;
maxOff = 4;
minOn = 4;
maxOn = 7;
forbidden = [{}, {1}, {1,2}];
forbidden3 = [|  |];
